c CNF file corresponding to a (partial) station packing problem.
p cnf 3044 243
3028 3029 3030 3031 3032 3033 3034 3035 3036 3037 3038 3039 3040 3041 3042 3043 3044 0
-3028 -3029 0
-3028 -3030 0
-3028 -3031 0
-3028 -3032 0
-3028 -3033 0
-3028 -3034 0
-3028 -3035 0
-3028 -3036 0
-3028 -3037 0
-3028 -3038 0
-3028 -3039 0
-3028 -3040 0
-3028 -3041 0
-3028 -3042 0
-3028 -3043 0
-3028 -3044 0
-3029 -3030 0
-3029 -3031 0
-3029 -3032 0
-3029 -3033 0
-3029 -3034 0
-3029 -3035 0
-3029 -3036 0
-3029 -3037 0
-3029 -3038 0
-3029 -3039 0
-3029 -3040 0
-3029 -3041 0
-3029 -3042 0
-3029 -3043 0
-3029 -3044 0
-3030 -3031 0
-3030 -3032 0
-3030 -3033 0
-3030 -3034 0
-3030 -3035 0
-3030 -3036 0
-3030 -3037 0
-3030 -3038 0
-3030 -3039 0
-3030 -3040 0
-3030 -3041 0
-3030 -3042 0
-3030 -3043 0
-3030 -3044 0
-3031 -3032 0
-3031 -3033 0
-3031 -3034 0
-3031 -3035 0
-3031 -3036 0
-3031 -3037 0
-3031 -3038 0
-3031 -3039 0
-3031 -3040 0
-3031 -3041 0
-3031 -3042 0
-3031 -3043 0
-3031 -3044 0
-3032 -3033 0
-3032 -3034 0
-3032 -3035 0
-3032 -3036 0
-3032 -3037 0
-3032 -3038 0
-3032 -3039 0
-3032 -3040 0
-3032 -3041 0
-3032 -3042 0
-3032 -3043 0
-3032 -3044 0
-3033 -3034 0
-3033 -3035 0
-3033 -3036 0
-3033 -3037 0
-3033 -3038 0
-3033 -3039 0
-3033 -3040 0
-3033 -3041 0
-3033 -3042 0
-3033 -3043 0
-3033 -3044 0
-3034 -3035 0
-3034 -3036 0
-3034 -3037 0
-3034 -3038 0
-3034 -3039 0
-3034 -3040 0
-3034 -3041 0
-3034 -3042 0
-3034 -3043 0
-3034 -3044 0
-3035 -3036 0
-3035 -3037 0
-3035 -3038 0
-3035 -3039 0
-3035 -3040 0
-3035 -3041 0
-3035 -3042 0
-3035 -3043 0
-3035 -3044 0
-3036 -3037 0
-3036 -3038 0
-3036 -3039 0
-3036 -3040 0
-3036 -3041 0
-3036 -3042 0
-3036 -3043 0
-3036 -3044 0
-3037 -3038 0
-3037 -3039 0
-3037 -3040 0
-3037 -3041 0
-3037 -3042 0
-3037 -3043 0
-3037 -3044 0
-3038 -3039 0
-3038 -3040 0
-3038 -3041 0
-3038 -3042 0
-3038 -3043 0
-3038 -3044 0
-3039 -3040 0
-3039 -3041 0
-3039 -3042 0
-3039 -3043 0
-3039 -3044 0
-3040 -3041 0
-3040 -3042 0
-3040 -3043 0
-3040 -3044 0
-3041 -3042 0
-3041 -3043 0
-3041 -3044 0
-3042 -3043 0
-3042 -3044 0
-3043 -3044 0
-10 -3040 0
-3036 -6 0
-3041 -11 0
-3035 -5 0
-14 -3044 0
-8 -3038 0
-3043 -13 0
-1 -3030 0
-12 -3042 0
-3031 -2 0
-3039 -9 0
-3 -3032 0
-4 -3034 0
-7 -3037 0
1 2 3 4 5 6 7 8 9 10 11 12 13 14 0
-1 -2 0
-1 -3 0
-1 -4 0
-1 -5 0
-1 -6 0
-1 -7 0
-1 -8 0
-1 -9 0
-1 -10 0
-1 -11 0
-1 -12 0
-1 -13 0
-1 -14 0
-2 -3 0
-2 -4 0
-2 -5 0
-2 -6 0
-2 -7 0
-2 -8 0
-2 -9 0
-2 -10 0
-2 -11 0
-2 -12 0
-2 -13 0
-2 -14 0
-3 -4 0
-3 -5 0
-3 -6 0
-3 -7 0
-3 -8 0
-3 -9 0
-3 -10 0
-3 -11 0
-3 -12 0
-3 -13 0
-3 -14 0
-4 -5 0
-4 -6 0
-4 -7 0
-4 -8 0
-4 -9 0
-4 -10 0
-4 -11 0
-4 -12 0
-4 -13 0
-4 -14 0
-5 -6 0
-5 -7 0
-5 -8 0
-5 -9 0
-5 -10 0
-5 -11 0
-5 -12 0
-5 -13 0
-5 -14 0
-6 -7 0
-6 -8 0
-6 -9 0
-6 -10 0
-6 -11 0
-6 -12 0
-6 -13 0
-6 -14 0
-7 -8 0
-7 -9 0
-7 -10 0
-7 -11 0
-7 -12 0
-7 -13 0
-7 -14 0
-8 -9 0
-8 -10 0
-8 -11 0
-8 -12 0
-8 -13 0
-8 -14 0
-9 -10 0
-9 -11 0
-9 -12 0
-9 -13 0
-9 -14 0
-10 -11 0
-10 -12 0
-10 -13 0
-10 -14 0
-11 -12 0
-11 -13 0
-11 -14 0
-12 -13 0
-12 -14 0
-13 -14 0
